#######################



#######################
Set parameter TimeLimit to value 500
Set parameter SoftMemLimit to value 125
Set parameter MIPFocus to value 3
Set parameter LogFile to value 1202-MIPFocus3-Presolve2-TimeLimit500-k16x240-3.log
Set parameter Presolve to value 2
Set parameter Seed to value 13
Using license file /opt/gurobi/gurobi.lic

Gurobi Optimizer version 12.0.2 build v12.0.2rc0 (linux64 - "Ubuntu 22.04.4 LTS")
Copyright (c) 2025, Gurobi Optimization, LLC

Read MPS format model from file /miplib2010/k16x240.mps.bz2
Reading time = 0.00 seconds
k16x240: 256 rows, 480 columns, 960 nonzeros

Using Gurobi shared library /nfs/shared/static-builds/gurobi1202

CPU model: Intel(R) Xeon(R) E-2388G CPU @ 3.20GHz, instruction set [SSE2|AVX|AVX2|AVX512]
Thread count: 8 physical cores, 16 logical processors, using up to 16 threads

Non-default parameters:
TimeLimit  500
SoftMemLimit  125
MIPFocus  3
Presolve  2
Seed  13

Optimize a model with 256 rows, 480 columns and 960 nonzeros
Model fingerprint: 0x4e80885f
Variable types: 240 continuous, 240 integer (240 binary)
Coefficient statistics:
  Matrix range     [1e+00, 1e+03]
  Objective range  [1e+00, 1e+03]
  Bounds range     [1e+00, 1e+03]
  RHS range        [4e+00, 4e+02]
Found heuristic solution: objective 25767.000000
Presolve time: 0.00s
Presolved: 256 rows, 480 columns, 960 nonzeros
Variable types: 240 continuous, 240 integer (240 binary)
Root relaxation presolve removed 241 rows and 240 columns
Root relaxation presolved: 15 rows, 240 columns, 450 nonzeros


Root relaxation: objective 2.769838e+03, 16 iterations, 0.00 seconds (0.00 work units)

    Nodes    |    Current Node    |     Objective Bounds      |     Work
 Expl Unexpl |  Obj  Depth IntInf | Incumbent    BestBd   Gap | It/Node Time

     0     0 2769.83800    0   14 25767.0000 2769.83800  89.3%     -    0s
H    0     0                    11359.000000 2769.83800  75.6%     -    0s
H    0     0                    11350.000000 2769.83800  75.6%     -    0s
H    0     0                    11261.000000 2769.83800  75.4%     -    0s
H    0     0                    11081.000000 2769.83800  75.0%     -    0s
H    0     0                    10918.000000 8116.87580  25.7%     -    0s
     0     0 8116.87580    0   26 10918.0000 8116.87580  25.7%     -    0s
H    0     0                    10914.000000 8182.85928  25.0%     -    0s
H    0     0                    10848.000000 8182.85928  24.6%     -    0s
     0     0 8751.29955    0   23 10848.0000 8751.29955  19.3%     -    0s
     0     0 8751.29955    0   19 10848.0000 8751.29955  19.3%     -    0s
     0     0 8771.82481    0   21 10848.0000 8771.82481  19.1%     -    0s
     0     0 8810.95744    0   23 10848.0000 8810.95744  18.8%     -    0s
     0     0 8810.95744    0   24 10848.0000 8810.95744  18.8%     -    0s
     0     0 9046.36529    0   39 10848.0000 9046.36529  16.6%     -    0s
H    0     0                    10765.000000 9046.36529  16.0%     -    0s
H    0     0                    10759.000000 9046.36529  15.9%     -    0s
     0     0 9053.09346    0   30 10759.0000 9053.09346  15.9%     -    0s
     0     0 9135.20764    0   31 10759.0000 9135.20764  15.1%     -    0s
     0     0 9184.77821    0   33 10759.0000 9184.77821  14.6%     -    0s
     0     0 9203.36729    0   33 10759.0000 9203.36729  14.5%     -    0s
H    0     0                    10674.000000 9203.36729  13.8%     -    0s
     0     2 9203.36729    0   33 10674.0000 9203.36729  13.8%     -    0s
  4526  3116 10337.2328   32   41 10674.0000 10304.1619  3.46%  74.9    5s
 18805  6155     cutoff   34      10674.0000 10561.5581  1.05%  51.0   10s

Cutting planes:
  Lift-and-project: 11
  Cover: 1
  Implied bound: 7
  Dual implied bound: 2
  MIR: 119
  Flow cover: 526
  Flow path: 26
  Zero half: 24
  Network: 27
  Relax-and-lift: 3

Explored 30957 nodes (1171115 simplex iterations) in 11.58 seconds (16.81 work units)
Thread count was 16 (of 16 available processors)

Solution count 10: 10674 10759 10765 ... 11359

Optimal solution found (tolerance 1.00e-04)
Best objective 1.067400000000e+04, best bound 1.067300000000e+04, gap 0.0094%
